unsat
(define-fun f ((x (_ BitVec 64))) (_ BitVec 64) (im (bvand #b0000000000000000000000000000000000000000000000000000000000000001 x) (arba (ehad x)) (shesh x)))
0.23user 0.01system 0:00.24elapsed 99%CPU (0avgtext+0avgdata 49992maxresident)k
0inputs+8outputs (0major+7201minor)pagefaults 0swaps
